<number of tasks>
20

<cycle time>
1000

<order strength>
0,521


<task times>
1 799
2 418
3 672
4 482
5 439
6 592
7 635
8 438
9 546
10 529
11 483
12 673
13 464
14 473
15 482
16 541
17 588
18 424
19 439
20 583

<precedence relations>
1,9
2,7
3,10
4,8
4,15
4,20
5,6
5,7
6,9
6,10
6,11
7,9
9,12
9,13
10,12
11,14
11,15
12,16
12,17
13,15
14,16
14,17
16,18
16,19
17,20

<end>
